50 1345

18 28
72 82
29 39
94 104
92 102
93 103
33 43
72 82
55 65
8 18
32 42
16 26
82 92
85 95
55 65
27 37
88 98
5 15
8 18
67 77
33 43
50 60
55 65
13 23
96 106
36 46
79 89
41 51
51 61
61 71
34 44
46 56
90 100
81 91
74 84
81 91
83 93
47 57
31 41
86 96
97 107
36 46
86 96
17 27
72 82
30 40
82 92
17 27
49 59
6 16
